certificates/rado_a11_c56_N21.drat
-20 -21 0
d -20 -5 -21 0
10 -21 0
-6 -21 0
-21 0
6 0
-5 0
-16 0
4 0
20 0
17 0
15 0
-8 0
-14 0
-18 0
-10 0
-7 0
-3 0
9 0
0
